(set-info :smt-lib-version 2.6)
(set-logic LRA)
(set-info :source |
   Monniaux, David; Quantifier Elimination by Lazy Model Enumeration, CAV 2010
|)
(set-info :category "random")
; ./Mjollnir_examples/B2/formula_018.m
(set-info :status sat)
(assert
 (forall ((|v11:0| Real) )(exists ((|v10:1| Real) )(forall ((|v9:2| Real) )(exists ((|v8:3| Real) )(forall ((|v7:4| Real) )(exists ((|v6:5| Real) )(forall ((|v5:6| Real) )(exists ((|v4:7| Real) )(forall ((|v3:8| Real) )(exists ((|v2:9| Real) )(forall ((|v1:10| Real) )(exists ((|v0:11| Real) )(let ((?x238 14))
(let ((?x63 13))
(let ((?x206 (* ?x63 |v3:8|)))
(let ((?x428 (+ (+ (* (- 11) |v0:11|) (* 11 |v8:3|)) (* (- 3) |v9:2|))))
(let ((?x28 5))
(let ((?x421 (+ (+ (* (- 4) |v0:11|) (* (- 15) |v10:1|)) (* ?x63 |v10:1|))))
(let (($x431 (or (<= (+ ?x421 (* 3 |v10:1|)) ?x28) (<= (+ ?x428 ?x206) ?x238))))
(let ((?x51 (- 5)))
(let ((?x412 (+ (+ (* 0 |v0:11|) (* 10 |v8:3|)) (* 20 |v11:0|))))
(let ((?x339 (- 7)))
(let ((?x406 (+ (+ (+ |v2:9| (* (- 10) |v10:1|)) (* 6 |v5:6|)) (* ?x28 |v6:5|))))
(let (($x432 (and (and (<= ?x406 ?x339) (<= (+ ?x412 (* (- 11) |v4:7|)) ?x51)) $x431)))
(let ((?x151 (- 8)))
(let ((?x395 (+ (+ (* 15 |v5:6|) (* 4 |v1:10|)) (* (- 19) |v6:5|))))
(let ((?x71 (- 10)))
(let ((?x179 (* ?x71 |v8:3|)))
(let ((?x389 (+ (+ (+ (* 7 |v2:9|) (* 3 |v3:8|)) ?x179) (* (- 13) |v5:6|))))
(let ((?x47 7))
(let ((?x215 6))
(let ((?x262 (* ?x215 |v8:3|)))
(let ((?x380 (+ (+ (* (- 13) |v3:8|) (* 9 |v0:11|)) (* 15 |v1:10|))))
(let ((?x275 2))
(let ((?x36 11))
(let ((?x37 (* ?x36 |v10:1|)))
(let ((?x374 (+ (+ (+ (* (- 12) |v0:11|) (* (- 17) |v1:10|)) ?x37) (* 4 |v0:11|))))
(let (($x400 (and (or (<= ?x374 ?x275) (<= (+ ?x380 ?x262) ?x47)) (or (<= ?x389 ?x63) (<= (+ ?x395 (* 4 |v5:6|)) ?x151)))))
(let ((?x363 (+ (+ (* ?x339 |v0:11|) (* (- 16) |v5:6|)) (* (- 3) |v11:0|))))
(let ((?x172 (- 2)))
(let ((?x330 (* ?x172 |v3:8|)))
(let ((?x358 (+ (+ (+ (* ?x275 |v3:8|) (* ?x151 |v0:11|)) (* (- 6) |v7:4|)) ?x330)))
(let ((?x351 (+ (+ (+ (* (- 19) |v3:8|) (* ?x47 |v7:4|)) (* ?x339 |v1:10|)) (* 17 |v7:4|))))
(let ((?x204 (- 4)))
(let ((?x344 (+ (+ (+ (* ?x63 |v5:6|) (* ?x339 |v0:11|)) (* (- 20) |v9:2|)) (* ?x47 |v6:5|))))
(let (($x368 (or (or (<= ?x344 ?x204) (<= ?x351 ?x275)) (or (<= ?x358 ?x36) (<= (+ ?x363 (* (- 1) |v3:8|)) ?x47)))))
(let ((?x191 12))
(let ((?x336 (+ (+ (+ ?x330 (* ?x215 |v11:0|)) (* 16 |v4:7|)) (* 15 |v7:4|))))
(let ((?x10 (- 16)))
(let ((?x98 17))
(let ((?x210 (* ?x98 |v4:7|)))
(let ((?x328 (+ (+ (+ (* (- 1) |v0:11|) (* ?x10 |v4:7|)) ?x210) (* (- 14) |v8:3|))))
(let ((?x200 (- 11)))
(let ((?x67 20))
(let ((?x242 (* ?x67 |v5:6|)))
(let ((?x316 (+ (+ (* (- 1) |v4:7|) (* ?x10 |v11:0|)) (* (- 1) |v6:5|))))
(let ((?x257 (* ?x151 |v7:4|)))
(let ((?x94 (- 15)))
(let ((?x291 (* ?x94 |v7:4|)))
(let (($x312 (<= (+ (+ (+ (* ?x10 |v4:7|) (* (- 17) |v1:10|)) ?x291) ?x257) ?x215)))
(let ((?x304 (+ (+ (+ (* ?x172 |v5:6|) (* 18 |v1:10|)) (* ?x10 |v7:4|)) (* (- 20) |v0:11|))))
(let ((?x297 (+ (+ (+ ?x291 (* 3 |v7:4|)) (* 18 |v0:11|)) (* ?x94 |v2:9|))))
(let (($x320 (or (and (<= ?x297 ?x172) (<= ?x304 ?x191)) (and $x312 (<= (+ ?x316 ?x242) ?x200)))))
(let ((?x285 (+ (+ (* (- 19) |v4:7|) (* 15 |v9:2|)) (* ?x51 |v6:5|))))
(let ((?x116 (- 17)))
(let ((?x279 (+ (+ (+ (* 15 |v3:8|) (* ?x204 |v7:4|)) (* ?x275 |v0:11|)) (* (- 3) |v7:4|))))
(let ((?x91 (- 12)))
(let ((?x268 (+ (+ (+ ?x262 (* (- 19) |v8:3|)) (* ?x238 |v9:2|)) (* 18 |v10:1|))))
(let ((?x260 (+ (+ (+ (* 19 |v7:4|) (* ?x151 |v10:1|)) ?x257) (* 10 |v0:11|))))
(let (($x290 (or (or (<= ?x260 ?x215) (<= ?x268 ?x91)) (and (<= ?x279 ?x116) (<= (+ ?x285 (* ?x215 |v9:2|)) ?x215)))))
(let ((?x250 (+ (+ (+ ?x242 (* ?x98 |v2:9|)) (* (- 14) |v0:11|)) (* ?x172 |v2:9|))))
(let ((?x240 (+ (+ (+ (* ?x172 |v5:6|) (* ?x151 |v0:11|)) (* 16 |v3:8|)) (* ?x238 |v11:0|))))
(let ((?x230 (+ (+ (+ (* ?x91 |v2:9|) (* ?x51 |v10:1|)) (* ?x200 |v11:0|)) (* 3 |v9:2|))))
(let ((?x42 10))
(let ((?x220 (+ (+ (+ (* (- 19) |v10:1|) (* ?x215 |v10:1|)) (* ?x191 |v6:5|)) (* ?x63 |v11:0|))))
(let ((?x58 (- 20)))
(let (($x222 (or (<= (+ (+ (+ (* ?x204 |v4:7|) ?x206) (* ?x151 |v3:8|)) ?x210) ?x58) (<= ?x220 ?x42))))
(let ((?x199 (+ (+ (+ (* ?x10 |v11:0|) (* ?x191 |v6:5|)) (* 4 |v11:0|)) (* (- 9) |v1:10|))))
(let ((?x142 (- 1)))
(let ((?x186 (+ (+ (+ (* 18 |v8:3|) ?x179) (* (- 13) |v8:3|)) (* 8 |v9:2|))))
(let (($x254 (or (and (or (<= ?x186 ?x142) (<= ?x199 ?x200)) $x222) (and (<= ?x230 ?x98) (or (<= ?x240 1) (<= ?x250 ?x63))))))
(let ((?x169 (+ (+ (* ?x42 |v5:6|) (* 4 |v8:3|)) (* (- 3) |v10:1|))))
(let ((?x107 3))
(let ((?x157 (+ (+ (+ (* ?x151 |v10:1|) (* ?x36 |v8:3|)) (* 19 |v11:0|)) (* ?x36 |v7:4|))))
(let ((?x108 (* ?x107 |v8:3|)))
(let ((?x147 (+ (+ (+ (* ?x94 |v3:8|) (* ?x142 |v1:10|)) (* 0 |v4:7|)) ?x108)))
(let ((?x14 9))
(let (($x138 (<= (+ (+ (+ ?x37 (* ?x107 |v0:11|)) (* ?x71 |v7:4|)) (* ?x94 |v11:0|)) ?x14)))
(let (($x174 (and (or (or $x138 (<= ?x147 ?x10)) (<= ?x157 ?x107)) (<= (+ ?x169 (* ?x58 |v2:9|)) ?x172))))
(let ((?x124 (+ (+ (* ?x116 |v9:2|) (* (- 13) |v4:7|)) (* 16 |v7:4|))))
(let ((?x110 15))
(let (($x129 (and (<= (+ (+ (+ |v9:2| (* ?x14 |v5:6|)) ?x108) (* ?x110 |v8:3|)) ?x110) (<= (+ ?x124 (* ?x63 |v0:11|)) 1))))
(let (($x102 (<= (+ (+ (+ (* ?x91 |v5:6|) (* ?x94 |v6:5|)) (* ?x98 |v5:6|)) ?x37) ?x94)))
(let ((?x86 (* 19 |v11:0|)))
(let ((?x48 (* ?x47 |v7:4|)))
(let ((?x87 (+ (+ (+ (* (- 19) |v11:0|) (* (- 13) |v1:10|)) ?x48) ?x86)))
(let (($x74 (<= (+ (+ (+ (* ?x63 |v5:6|) |v0:11|) (* ?x67 |v10:1|)) (* ?x71 |v9:2|)) ?x42)))
(let (($x61 (<= (+ (+ (+ ?x48 (* ?x51 |v2:9|)) (* ?x51 |v5:6|)) (* ?x58 |v9:2|)) ?x14)))
(let ((?x41 (+ (+ (+ (* ?x28 |v0:11|) (* (- 6) |v8:3|)) ?x37) (* ?x36 |v1:10|))))
(let ((?x24 0))
(let ((?x23 (+ (+ (+ (* ?x10 |v10:1|) (* ?x14 |v5:6|)) (* ?x10 |v0:11|)) (* (- 13) |v10:1|))))
(let (($x131 (and (and (or (<= ?x23 ?x24) (<= ?x41 ?x42)) (or $x61 $x74)) (and (and (<= ?x87 ?x58) $x102) $x129))))
(or (and (and $x131 $x174) (and $x254 (and $x290 $x320))) (or (<= ?x328 ?x10) (and (and (<= ?x336 ?x191) $x368) (or $x400 $x432)))))))))))))))))))))))))))))))))))))))))))))))))))))))))))))))))))))))))))))))))))))))))))))))
)
)
)
)
)
)
)
)
)
)
)
)
(check-sat)
(exit)

